
  32    4
  10   10   10   10

   0   0   0   0   0   6 2 3 4 5 6 12 
   5  10  10  10  10   6 21 14 13 11 10 7 
   3  10  10  10  10   4 21 10 8 7 
   8  10  10  10  10   2 11 7 
   5  10  10  10  10   2 10 7 
   8  10  10  10  10   6 21 18 17 16 15 10 
   4  10  10  10  10   5 24 20 17 16 9 
   3  10  10  10  10   3 24 11 9 
   2  10  10  10  10   3 19 18 15 
   4  10  10  10  10   6 30 29 25 24 23 22 
   7  10  10  10  10   3 31 22 16 
   1  10  10  10  10   3 24 23 18 
   7  10  10  10  10   3 22 20 19 
   2  10  10  10  10   3 30 22 17 
   8  10  10  10  10   4 31 30 23 22 
   2  10  10  10  10   3 30 23 19 
   1  10  10  10  10   4 29 27 25 23 
   9  10  10  10  10   3 29 25 22 
   3  10  10  10  10   3 29 28 27 
   7  10  10  10  10   3 31 30 27 
   3  10  10  10  10   1 22 
   8  10  10  10  10   2 27 26 
   6  10  10  10  10   2 28 26 
   7  10  10  10  10   2 31 26 
   7  10  10  10  10   1 26 
   9  10  10  10  10   1 32
  10  10  10  10  10   1 32
   9  10  10  10  10   1 32
   3  10  10  10  10   1 32
   2  10  10  10  10   1 32
   8  10  10  10  10   1 32
   0   0   0   0   0   0 
